NAME: cost_matrix_problem
TYPE: TSP
DIMENSION: 11
EDGE_WEIGHT_TYPE: EXPLICIT
EDGE_WEIGHT_FORMAT: FULL_MATRIX
EDGE_WEIGHT_SECTION
99995 79732 53209 71808 77382 45712 62210 79732 73497 71808 75336
79732 99995 75336 46791 71808 75336 75336 77382 64690 77382 47864
53209 75336 99995 75336 70234 73497 44625 75336 61018 86473 79732
71808 46791 75336 99995 53209 63432 77382 77382 68750 79732 75336
77382 71808 70234 53209 99995 71808 75336 75336 43528 73497 75336
45712 75336 73497 63432 71808 99995 68750 61018 73497 77382 73497
62210 75336 44625 77382 75336 68750 99995 75336 79732 54288 77382
79732 77382 75336 77382 75336 61018 75336 99995 75336 42418 53209
73497 64690 61018 68750 43528 73497 79732 75336 99995 73497 71808
71808 77382 86473 79732 73497 77382 54288 42418 73497 99995 59852
75336 47864 79732 75336 75336 73497 77382 53209 71808 59852 99995
EOF
